NAME : LPS-n19-m215
COMMENT : (Lartu-Peter-Santi Plot, instance 6615 out of 39200. 19 customers.)
TYPE : CVRP
DIMENSION : 19
EDGE_WEIGHT_TYPE : EUC_2D
CAPACITY : 86
NODE_COORD_SECTION
 1 72 72
 2 30 90
 3 80 83
 4 95 33
 5 50 1
 6 45 18
 7 100 98
 8 85 59
 9 91 2
 10 57 92
 11 93 12
 12 33 12
 13 70 83
 14 2 32
 15 93 11
 16 12 50
 17 12 5
 18 49 75
 19 0 60
DEMAND_SECTION
1 0
2 67
3 53
4 57
5 68
6 47
7 50
8 6
9 57
10 76
11 66
12 23
13 28
14 61
15 15
16 19
17 10
18 43
19 18
DEPOT_SECTION
 1
 -1
EOF
